proyfinal/src/viki/013/experimentInOfficeAgust.take6.output/91b0e73f-0140-4fa4-9c41-88a4aabb09e6.als.out
Reading from standard input... Use '--help' for help.
============================[ Problem Statistics ]=============================
|                                                                             |
|  Number of variables:         87638                                         |
|  Number of clauses:          161767                                         |
|  Parse time:                   0.04 s                                       |
|                                                                             |
============================[ Search Statistics ]==============================
| Conflicts |          ORIGINAL         |          LEARNT          | Progress |
|           |    Vars  Clauses Literals |    Limit  Clauses Lit/Cl |          |
===============================================================================
|       100 |   61925   103551   258705 |    37968      100     11 | 29.340 % |
|       250 |   61925   103551   258705 |    41765      250     48 | 29.340 % |
|       475 |   61925   103551   258705 |    45942      475    119 | 29.340 % |
|       812 |   61925   103551   258705 |    50536      812     97 | 29.340 % |
|      1318 |   61925   103551   258705 |    55589     1318     92 | 29.340 % |
|      2077 |   61925   103551   258705 |    61148     2077     86 | 29.340 % |
|      3216 |   61925   103551   258705 |    67263     3216     82 | 29.340 % |
===============================================================================
restarts              : 22
conflicts             : 4085           (7270 /sec)
decisions             : 13253          (0.00 % random) (23586 /sec)
propagations          : 6110262        (10874481 /sec)
conflict literals     : 313851         (55.81 % deleted)
Memory used           : 18.85 MB
CPU time              : 0.56189 s

UNSATISFIABLE
